Academic license - for non-commercial use only - expires 2022-11-10
Using license file /home/benedond/Apps/gurobi/gurobi950/gurobi.lic
Using gurobi.env file
Set parameter Threads to value 1
Changed value of parameter TimeLimit to 1200.0
   Prev: inf  Min: 0.0  Max: inf  Default: inf
Gurobi Optimizer version 9.1.2 build v9.1.2rc0 (linux64)
Thread count: 2 physical cores, 4 logical processors, using up to 1 threads
Optimize a model with 450 rows, 220 columns and 1638 nonzeros
Model fingerprint: 0xfb04ae11
Variable types: 10 continuous, 210 integer (200 binary)
Coefficient statistics:
  Matrix range     [2e-01, 8e+02]
  Objective range  [3e-03, 7e-01]
  Bounds range     [1e+00, 1e+00]
  RHS range        [1e+00, 8e+02]

---------------------------------------------------------------------------
Multi-objectives: starting optimization with 1 objectives ... 
---------------------------------------------------------------------------
---------------------------------------------------------------------------

Multi-objectives: optimize objective 1 (min avg power cons) ...
---------------------------------------------------------------------------

Optimize a model with 450 rows, 220 columns and 1638 nonzeros
Model fingerprint: 0x94998960
Variable types: 10 continuous, 210 integer (200 binary)
Coefficient statistics:
  Matrix range     [2e-01, 8e+02]
  Objective range  [3e-03, 7e-01]
  Bounds range     [1e+00, 1e+00]
  RHS range        [1e+00, 8e+02]
Presolve removed 352 rows and 163 columns
Presolve time: 0.01s
Presolved: 98 rows, 57 columns, 509 nonzeros
Variable types: 4 continuous, 53 integer (49 binary)
Found heuristic solution: objective 4.8417188
Found heuristic solution: objective 4.7004688

Root relaxation: objective 2.948824e+00, 87 iterations, 0.00 seconds

    Nodes    |    Current Node    |     Objective Bounds      |     Work
 Expl Unexpl |  Obj  Depth IntInf | Incumbent    BestBd   Gap | It/Node Time

     0     0    2.94882    0   33    4.70047    2.94882  37.3%     -    0s
H    0     0                       4.4354063    2.94882  33.5%     -    0s
     0     0    3.07727    0   32    4.43541    3.07727  30.6%     -    0s
H    0     0                       4.2172500    3.07727  27.0%     -    0s
H    0     0                       4.0332501    3.07727  23.7%     -    0s
     0     0    3.08999    0   34    4.03325    3.08999  23.4%     -    0s
     0     0    3.14210    0   28    4.03325    3.14210  22.1%     -    0s
     0     0    3.18296    0   29    4.03325    3.18296  21.1%     -    0s
     0     0    3.23709    0   33    4.03325    3.23709  19.7%     -    0s
     0     0    3.24457    0   31    4.03325    3.24457  19.6%     -    0s
     0     0    3.27562    0   33    4.03325    3.27562  18.8%     -    0s
     0     0    3.28165    0   33    4.03325    3.28165  18.6%     -    0s
     0     0    3.28280    0   30    4.03325    3.28280  18.6%     -    0s
     0     0    3.28360    0   32    4.03325    3.28360  18.6%     -    0s
     0     0    3.28385    0   33    4.03325    3.28385  18.6%     -    0s
     0     0    3.29199    0   35    4.03325    3.29199  18.4%     -    0s
     0     0    3.29446    0   34    4.03325    3.29446  18.3%     -    0s
     0     0    3.29460    0   34    4.03325    3.29460  18.3%     -    0s
     0     0    3.29460    0   34    4.03325    3.29460  18.3%     -    0s
     0     0    3.30418    0   30    4.03325    3.30418  18.1%     -    0s
     0     0    3.30664    0   32    4.03325    3.30664  18.0%     -    0s
     0     0    3.30686    0   32    4.03325    3.30686  18.0%     -    0s
     0     0    3.31135    0   27    4.03325    3.31135  17.9%     -    0s
     0     0    3.31313    0   28    4.03325    3.31313  17.9%     -    0s
     0     0    3.31332    0   29    4.03325    3.31332  17.8%     -    0s
     0     0    3.31341    0   30    4.03325    3.31341  17.8%     -    0s
     0     0    3.31790    0   29    4.03325    3.31790  17.7%     -    0s
     0     0    3.31823    0   31    4.03325    3.31823  17.7%     -    0s
     0     0    3.31920    0   31    4.03325    3.31920  17.7%     -    0s
     0     0    3.32077    0   30    4.03325    3.32077  17.7%     -    0s
     0     0    3.32136    0   31    4.03325    3.32136  17.7%     -    0s
     0     0    3.32141    0   31    4.03325    3.32141  17.6%     -    0s
     0     0    3.32207    0   32    4.03325    3.32207  17.6%     -    0s
     0     0    3.32224    0   31    4.03325    3.32224  17.6%     -    0s
     0     0    3.32226    0   31    4.03325    3.32226  17.6%     -    0s
     0     0    3.32243    0   31    4.03325    3.32243  17.6%     -    0s
     0     0    3.32244    0   31    4.03325    3.32244  17.6%     -    0s
     0     0    3.32248    0   31    4.03325    3.32248  17.6%     -    0s
     0     0    3.32248    0   31    4.03325    3.32248  17.6%     -    0s
     0     2    3.32382    0   31    4.03325    3.32382  17.6%     -    0s

Cutting planes:
  Gomory: 1
  Cover: 2
  Implied bound: 1
  MIR: 14
  Mod-K: 1
  RLT: 1
  Relax-and-lift: 4

Explored 9 nodes (602 simplex iterations) in 0.08 seconds
Thread count was 1 (of 4 available processors)

Solution count 5: 4.03325 4.21725 4.43541 ... 4.84172

Optimal solution found (tolerance 1.00e-04)
Best objective 4.033250066126e+00, best bound 4.033250066126e+00, gap 0.0000%

---------------------------------------------------------------------------
Multi-objectives: solved in 0.08 seconds, solution count 5

